 100 

  37  40  46  24  11  43   2   1   1  41   6  22  42  46  35  16  45  32  25  37  38  31  25  17  50  35   7  38  10  11   1  26   7  12  27  34  35  32  33  15  15  10  32   2  17  47  20  38  26  49  39  36  23  45  12   4  21  16  12  22  12  18  30  10  17  30  41  31   2  32  12  43   3  47   9  33  18  34  22   2   3  34  37  25  30  43  21  12   2  12  31  19  35  44  18  19  47  40  10  42

 950

  22  16  17  20  12  13  13   3  21  24   7  22  25  25  14  22  25  15   2   4  25  20   8   5  16   1  16  23   2   5  12  24  15   5  11  21  21   4  15  14   7  22   5  17   1  21   6  13   1  25   7  16  17  10   7  22  15  14   1   2  13  15  13  12   7  20   7   6  20  12  10   6  11   8  12  14  12  25  15   2  19   7  10  12   2   4  16  12   8   8  19   8  17  24  16  13  14  20  14   1

